Route #1:
Route #2: 2 30
Route #3: 17 27 16
Route #4: 15 21 24
Route #5: 26
Route #6: 29 28
Route #7: 22
Route #8: 6
Route #9: 7
Route #10: 9 13 25 20
Route #11: 8
Route #12: 23 3
Route #13: 14
Route #14: 12
Route #15: 4 10 5
Route #16: 31
Route #17: 1
Route #18: 11 18 19

Cost: 2785.710426249369
